
Gurobi 11.0.2 (win64) logging started Mon Jan 20 14:41:13 2025

Set parameter LogFile to value "log_STTP1_targetS1_E2_Gurobi.log"
Set parameter Method to value 0

Gurobi 11.0.2 (win64) logging started Mon Jan 20 14:41:21 2025

Set parameter LogFile to value "log_STTP1_targetS1_E2_Gurobi.log"
Gurobi Optimizer version 11.0.2 build v11.0.2rc0 (win64 - Windows 11.0 (22621.2))

CPU model: 12th Gen Intel(R) Core(TM) i7-12700, instruction set [SSE2|AVX|AVX2]
Thread count: 12 physical cores, 20 logical processors, using up to 20 threads

Optimize a model with 2506792 rows, 3590 columns and 5014472 nonzeros
Model fingerprint: 0xb7779712
Variable types: 0 continuous, 3590 integer (3590 binary)
Coefficient statistics:
  Matrix range     [1e+00, 2e+00]
  Objective range  [1e+00, 1e+00]
  Bounds range     [0e+00, 0e+00]
  RHS range        [1e+00, 2e+00]
Found heuristic solution: objective -0.0000000
Presolve removed 2500100 rows and 1322 columns
Presolve time: 0.53s
Presolved: 6692 rows, 2268 columns, 14272 nonzeros
Variable types: 0 continuous, 2268 integer (2268 binary)
Found heuristic solution: objective 116.0000000

Root relaxation: objective 1.599688e+02, 1624 iterations, 0.01 seconds (0.01 work units)

    Nodes    |    Current Node    |     Objective Bounds      |     Work
 Expl Unexpl |  Obj  Depth IntInf | Incumbent    BestBd   Gap | It/Node Time

     0     0  159.96875    0  238  116.00000  159.96875  37.9%     -    0s
H    0     0                     140.0000000  159.96875  14.3%     -    0s
H    0     0                     141.0000000  159.96875  13.5%     -    0s
H    0     0                     142.0000000  159.96875  12.7%     -    0s
H    0     0                     144.0000000  157.71732  9.53%     -    0s
     0     0  157.71732    0  552  144.00000  157.71732  9.53%     -    0s
H    0     0                     145.0000000  157.71732  8.77%     -    0s
     0     0  156.84901    0  746  145.00000  156.84901  8.17%     -    1s
     0     0  156.72720    0  716  145.00000  156.72720  8.09%     -    1s
     0     0  156.72538    0  734  145.00000  156.72538  8.09%     -    1s
     0     0  156.72538    0  735  145.00000  156.72538  8.09%     -    1s
     0     0  156.28379    0  778  145.00000  156.28379  7.78%     -    1s
     0     0  156.14990    0  804  145.00000  156.14990  7.69%     -    1s
     0     0  156.12759    0  807  145.00000  156.12759  7.67%     -    1s
H    0     0                     146.0000000  156.12645  6.94%     -    1s
     0     0  156.12645    0  825  146.00000  156.12645  6.94%     -    1s
H    0     0                     147.0000000  155.92953  6.07%     -    1s
H    0     0                     148.0000000  155.92953  5.36%     -    1s
     0     0  155.92953    0  815  148.00000  155.92953  5.36%     -    1s
     0     0  155.89734    0  852  148.00000  155.89734  5.34%     -    1s
     0     0  155.89347    0  855  148.00000  155.89347  5.33%     -    1s
     0     0  155.89333    0  864  148.00000  155.89333  5.33%     -    1s
     0     0  155.83264    0  833  148.00000  155.83264  5.29%     -    1s
     0     0  155.82833    0  864  148.00000  155.82833  5.29%     -    1s
     0     0  155.82042    0  870  148.00000  155.82042  5.28%     -    1s
     0     0  155.81883    0  874  148.00000  155.81883  5.28%     -    1s
     0     0  155.64770    0  857  148.00000  155.64770  5.17%     -    1s
     0     0  155.63924    0  858  148.00000  155.63924  5.16%     -    1s
     0     0  155.63814    0  854  148.00000  155.63814  5.16%     -    1s
     0     0  155.57751    0  859  148.00000  155.57751  5.12%     -    1s
     0     0  155.57243    0  841  148.00000  155.57243  5.12%     -    1s
     0     0  155.57100    0  853  148.00000  155.57100  5.12%     -    1s
H    0     0                     149.0000000  155.52569  4.38%     -    2s
     0     0  155.52569    0  873  149.00000  155.52569  4.38%     -    2s
     0     0  155.51847    0  865  149.00000  155.51847  4.37%     -    2s
     0     0  155.51562    0  890  149.00000  155.51562  4.37%     -    2s
     0     0  155.46248    0  891  149.00000  155.46248  4.34%     -    2s
     0     0  155.45593    0  899  149.00000  155.45593  4.33%     -    2s
     0     0  155.45513    0  902  149.00000  155.45513  4.33%     -    2s
     0     0  155.44453    0  905  149.00000  155.44453  4.33%     -    2s
     0     0  155.44429    0  890  149.00000  155.44429  4.33%     -    2s
     0     2  155.44364    0  890  149.00000  155.44364  4.32%     -    2s
H   36    40                     150.0000000  155.12696  3.42%   332    2s
  1729  1614  154.03558   11  688  150.00000  154.98944  3.33%   134    5s
H 2065  1705                     151.0000000  154.89211  2.58%   128    7s
  2100  1729  151.79167   61  937  151.00000  154.79670  2.51%   126   10s
H 2255  1766                     152.0000000  154.53202  1.67%   154   12s
  3429  2143  153.49591   32  520  152.00000  154.51706  1.66%   180   15s
  7384  2876  153.56851   25  797  152.00000  154.07650  1.37%   185   20s
 12627  4766  153.18392   22  685  152.00000  153.91928  1.26%   186   25s
 16685  6191  153.09877   34  514  152.00000  153.83261  1.21%   187   30s
 22338  7493  153.43851   24  738  152.00000  153.74438  1.15%   184   35s
 26506  8393     cutoff   27       152.00000  153.69863  1.12%   183   40s
 32584  9473     cutoff   29       152.00000  153.63756  1.08%   182   45s
 36460 10007  153.30734   27  686  152.00000  153.60437  1.06%   182   50s
 42939 10710  153.05497   30  718  152.00000  153.55544  1.02%   182   56s
 46627 10832  153.16458   32  546  152.00000  153.53067  1.01%   182   71s
 46663 10856  153.35306   28  989  152.00000  153.53067  1.01%   181   75s
 46698 10879  153.47271   26  994  152.00000  153.53067  1.01%   181   80s
 46736 10905  153.23431   34 1006  152.00000  153.53067  1.01%   181   85s
 46769 10927  153.13945   29  994  152.00000  153.53067  1.01%   181   90s
 46800 10947  153.25415   36 1007  152.00000  153.53067  1.01%   181   95s
 46828 10966  153.11031   35 1005  152.00000  153.53067  1.01%   181  100s
 46854 10983  153.47552   29 1001  152.00000  153.53067  1.01%   181  105s
 46882 11002  153.28002   31 1019  152.00000  153.53067  1.01%   181  110s
 46943 11064  153.53067   30  946  152.00000  153.53067  1.01%   182  115s
 48300 11168  153.09004   32  829  152.00000  153.51455  1.00%   185  120s
 49909 10745  153.07417   37  795  152.00000  153.36093  0.90%   186  125s
 51955  9672     cutoff   37       152.00000  153.21632  0.80%   189  130s

Cutting planes:
  Gomory: 32
  Cover: 137
  Clique: 22
  MIR: 4
  Flow cover: 61
  Zero half: 332
  RLT: 6
  Relax-and-lift: 1

Explored 52657 nodes (9975971 simplex iterations) in 132.42 seconds (185.18 work units)
Thread count was 20 (of 20 available processors)

Solution count 10: 152 151 150 ... 142

Optimal solution found (tolerance 1.00e-04)
Best objective 1.520000000000e+02, best bound 1.520000000000e+02, gap 0.0000%

User-callback calls 123638, time in user-callback 0.04 sec
